# Solution for model r5_t18_m2_8
# Finished Task: 10 / 18
# Makespan: 414.0, Total Distance: 681.0, Total Time: 0.0172
# R O S F
0 0 10 0.0 0.0
1 1 18 0.0 0.0
2 2 9 0.0 0.0
3 3 20 0.0 0.0
4 4 11 0.0 0.0
5 2 -1 287.0 322.0
6 -1 -1 -1.0 -1.0
7 4 -1 270.0 297.0
8 -1 -1 -1.0 -1.0
9 2 5 206.0 238.0
10 0 19 157.0 177.0
11 4 22 119.0 157.0
12 -1 -1 -1.0 -1.0
13 -1 -1 -1.0 -1.0
14 -1 -1 -1.0 -1.0
15 1 -1 387.0 414.0
16 -1 -1 -1.0 -1.0
17 -1 -1 -1.0 -1.0
18 1 15 198.0 220.0
19 0 -1 351.0 376.0
20 3 -1 220.0 249.0
21 -1 -1 -1.0 -1.0
22 4 7 213.0 246.0
